language Essence 1.3

letting bot_end be [54, 784, 123, 92, 787, 789, 11, 46, 741, 58, 27, 30, 15, 729, 0, 481, 783; int(1..17)]
letting bot_start be [520, 171, 633, 785, 241, 209, 639, 488, 158, 587, 568, 629, 491, 41, 447, 13, 184; int(1..17)]
letting buffer_col be 2
letting buffer_row be 2
letting corridor_size be 2
letting n_shelves_col be 1
letting n_shelves_row be 32
letting shelf_col_size be 2
letting shelf_row_size be 1
